p cnf 7230 14
-3398 3850 -3853 0
3398 -3851 0
3412 -3853 0
1556 -3849 0
-1556 -3406 -3412 3852 0
-3851 3853 0
3849 -3853 0
3406 -3849 0
-3850 3851 0
-3852 3853 0
-3848 3849 0
3848 -3849 0
3412 -3855 0
1556 -3855 0
